
Welcome to IBM(R) ILOG(R) CPLEX(R) Interactive Optimizer 12.7.1.0
  with Simplex, Mixed Integer & Barrier Optimizers
5725-A06 5725-A29 5724-Y48 5724-Y49 5724-Y54 5724-Y55 5655-Y21
Copyright IBM Corp. 1988, 2017.  All Rights Reserved.

Type 'help' for a list of available commands.
Type 'help' followed by a command name for more
information on commands.

CPLEX> New value for default parallel thread count: 1
CPLEX> New value for time limit in seconds: 3600
CPLEX> Problem 'eil76_m38.lp' read.
Read time = 0.28 sec. (23.72 ticks)
CPLEX> CPXPARAM_TimeLimit                               3600
CPXPARAM_Threads                                 1
CPXPARAM_Read_APIEncoding                        "UTF-8"
Tried aggregator 1 time.
MIP Presolve modified 222300 coefficients.
Reduced MIP has 8664 rows, 216676 columns, and 1294094 nonzeros.
Reduced MIP has 216600 binaries, 75 generals, 0 SOSs, and 0 indicators.
Presolve time = 0.79 sec. (995.23 ticks)
Tried aggregator 1 time.
Reduced MIP has 8664 rows, 216676 columns, and 1294094 nonzeros.
Reduced MIP has 216600 binaries, 76 generals, 0 SOSs, and 0 indicators.
Presolve time = 0.84 sec. (689.73 ticks)
Probing time = 0.25 sec. (103.21 ticks)
Clique table members: 424576.
MIP emphasis: balance optimality and feasibility.
MIP search method: dynamic search.
Parallel mode: none, using 1 thread.
Root relaxation solution time = 75.49 sec. (117404.83 ticks)

        Nodes                                         Cuts/
   Node  Left     Objective  IInf  Best Integer    Best Bound    ItCnt     Gap

      0     0       46.1683   313                     46.1683    63217         
      0     0       47.0000   366                    Cuts: 38    85780         
      0     0       47.0000   431                   Cuts: 149   107390         
      0     0       47.0000   613                    Cuts: 41   135555         
Heuristic still looking.
Heuristic still looking.
      0     2       47.0000   322                     47.0000   135555         
Elapsed time = 489.39 sec. (730972.84 ticks, tree = 0.01 MB, solutions = 0)
      1     3       47.0000   352                     47.0000   136350         
      2     4       47.0000   354                     47.0000   136805         
      3     5       47.0000   345                     47.0000   137735         
      4     6       47.0000   366                     47.0000   149185         
      5     7       47.0000   356                     47.0000   164211         
      6     8       47.0000   368                     47.0000   175260         
      7     9       47.0000   370                     47.0000   196897         
      8    10       47.0000   327                     47.0000   208560         
     10    10       47.0000   328                     47.0000   209555         
     11    11       47.0000   312                     47.0000   209913         
Elapsed time = 643.41 sec. (987594.66 ticks, tree = 1.58 MB, solutions = 0)
     12    12       47.0000   317                     47.0000   219197         
     13    13       47.0000   355                     47.0000   220334         
     15    13       47.0000   356                     47.0000   222106         
     16    14       47.0000   346                     47.0000   222479         
     17    15       47.0099   327                     47.0000   226921         
     18    16       47.0111   318                     47.0000   229428         
     21    17       47.5526   338                     47.0000   232056         
     24    20       48.2325   284                     47.0000   232423         
     28    24       49.0789   305                     47.0000   232839         
     29    25       49.0789   394                     47.0000   233152         
Elapsed time = 687.76 sec. (1061054.66 ticks, tree = 3.96 MB, solutions = 0)
     32    26       49.0789   412                     47.0000   233532         
     33    27       49.0789   327                     47.0000   246752         
     34    28       49.0789   339                     47.0000   262750         
     36    28       49.0789   375                     47.0000   263928         
     37    29       49.0789   310                     47.0000   280194         
     38    30       49.0789   327                     47.0000   294797         
     39    31       49.0789   401                     47.0000   298015         
     40    32       49.0789   301                     47.0000   312600         
     41    32       49.4737   278                     47.0000   312620         
     42    33       55.3684   223                     47.0000   312749         
Elapsed time = 829.21 sec. (1289604.49 ticks, tree = 5.61 MB, solutions = 0)
     53    42       80.2368   190                     47.0000   313050         
     69    54      102.4737   201                     47.0000   313327         
     80    61      116.6053   133                     47.0000   313513         
     98    75      142.6579   121                     47.0000   313744         
    100    77      142.6579   123                     47.0000   313773         
    114    87      145.7895   105                     47.0000   313955         
    120    91      156.1711   115                     47.0000   314007         
    140   105      200.6316   110                     47.0000   314238         
    158   122      210.0000    77                     47.0000   314503         
    160   124      210.0000    73                     47.0000   314543         
Elapsed time = 838.06 sec. (1300211.06 ticks, tree = 22.59 MB, solutions = 0)
    177   136      210.0000    32                     47.0000   314857         
*   180+  107                          210.0000       47.0000            77.62%
    181   107       47.0180   350      210.0000       47.0000   319683   77.62%
    182   108       47.2414   338      210.0000       47.0000   320186   77.62%
    184   110       47.1262   365      210.0000       47.0000   320660   77.62%
    190   116       52.0000   345      210.0000       47.0000   321089   77.62%
    193   119       52.0000   377      210.0000       47.0000   321656   77.62%
    194   120       52.0000   351      210.0000       47.0000   333808   77.62%
    196   122       52.0000   305      210.0000       47.0000   349135   77.62%
    197   123       52.0000   340      210.0000       47.0000   370353   77.62%
    198   124       52.0000   361      210.0000       47.0000   371432   77.62%
Elapsed time = 940.09 sec. (1456212.30 ticks, tree = 22.64 MB, solutions = 1)
    199   125       52.0000   325      210.0000       47.0000   385928   77.62%
    200   126       52.0000   336      210.0000       47.0000   404521   77.62%
    201   127       52.0000   309      210.0000       47.0000   424316   77.62%
    202   128       52.0000   286      210.0000       47.0000   440043   77.62%
    203   129       52.0000   285      210.0000       47.0000   458577   77.62%
    204   130       52.0000   294      210.0000       47.0000   479269   77.62%
    205   131       52.0000   290      210.0000       47.0000   502399   77.62%
    206   132       52.0000   253      210.0000       47.0000   524903   77.62%
    207   133       52.0000   317      210.0000       47.0000   526059   77.62%
    208   134       52.0000   271      210.0000       47.0000   546632   77.62%
Elapsed time = 1248.12 sec. (1927503.73 ticks, tree = 24.48 MB, solutions = 1)
    209   135       52.0000   328      210.0000       47.0000   560807   77.62%
    210   136       52.0000   268      210.0000       47.0000   579612   77.62%
    211   137       52.0000   281      210.0000       47.0000   599223   77.62%
    212   138       52.3684   287      210.0000       47.0000   615891   77.62%
    213   139       52.0000   319      210.0000       47.0000   616655   77.62%
    215   139       52.0000   276      210.0000       47.0000   635677   77.62%
    216   140       52.0000   284      210.0000       47.0000   649924   77.62%
    217   141       52.0000   295      210.0000       47.0000   665333   77.62%
    218   142       52.0000   295      210.0000       47.0000   680921   77.62%
    219   143       52.0000   294      210.0000       47.0000   683420   77.62%
Elapsed time = 1462.90 sec. (2256096.07 ticks, tree = 26.15 MB, solutions = 1)
    220   144       52.0000   253      210.0000       47.0000   697371   77.62%
    221   145       52.0000   365      210.0000       47.0000   700600   77.62%
    222   146       52.0000   345      210.0000       47.0000   701488   77.62%
    223   147       52.0000   266      210.0000       47.0000   716480   77.62%
    224   148       52.0000   277      210.0000       47.0000   725720   77.62%
    225   149       60.0000   293      210.0000       47.0000   739677   77.62%
    226   150       52.0000   264      210.0000       47.0000   748585   77.62%
    227   151       52.0000   293      210.0000       47.0000   756656   77.62%
    228   151       54.1316   288      210.0000       47.0000   770415   77.62%
    229   152       52.0000   311      210.0000       47.0000   775441   77.62%
Elapsed time = 1587.34 sec. (2450882.38 ticks, tree = 27.64 MB, solutions = 1)
    230   152       52.0000   274      210.0000       47.0000   780590   77.62%
    245   161      103.1053   151      210.0000       47.0000   780928   77.62%
    250   164       99.1053   155      210.0000       47.0000   781014   77.62%
    260   171      131.0000   121      210.0000       47.0000   781178   77.62%
    273   178    infeasible            210.0000       47.0000   781326   77.62%
    280   185      133.0000   116      210.0000       47.0000   781403   77.62%
    294   199      133.0000    95      210.0000       47.0000   781614   77.62%
    308   211      133.0000    91      210.0000       47.0000   781913   77.62%
    320   223      133.0000    42      210.0000       47.0000   782288   77.62%
    336   230    infeasible            210.0000       47.0000   782691   77.62%
Elapsed time = 1602.35 sec. (2472286.86 ticks, tree = 42.74 MB, solutions = 1)
*   348   221      integral     0      179.0000       47.0000   782772   73.74%
    349   221       47.0000   338      179.0000       47.0000   808081   73.74%
    350   222       47.0000   358      179.0000       47.0000   809029   73.74%
    351   223       47.0000   344      179.0000       47.0000   809504   73.74%
    352   224       47.0000   357      179.0000       47.0000   822517   73.74%
    353   225       47.0000   358      179.0000       47.0000   829982   73.74%
    355   227       47.0000   378      179.0000       47.0000   830858   73.74%
    356   228       47.0000   364      179.0000       47.0000   839469   73.74%
    357   229       47.0000   351      179.0000       47.0000   840076   73.74%
    358   230       47.0000   393      179.0000       47.0000   857454   73.74%
    360   232       47.0000   380      179.0000       47.0000   871290   73.74%
Elapsed time = 1808.63 sec. (2824995.21 ticks, tree = 43.02 MB, solutions = 2)
    361   233       47.0000   400      179.0000       47.0000   876004   73.74%
    362   234       47.0000   391      179.0000       47.0000   884739   73.74%
    363   235       47.0000   386      179.0000       47.0000   890331   73.74%
    365   237       47.0000   391      179.0000       47.0000   901784   73.74%
    366   238       47.0000   374      179.0000       47.0000   910134   73.74%
    367   239       47.0865   325      179.0000       47.0000   925026   73.74%
    369   241       47.4321   426      179.0000       47.0000   925924   73.74%
    372   244       47.5516   387      179.0000       47.0000   927411   73.74%
    374   246       47.6699   442      179.0000       47.0000   929071   73.74%
    377   249       47.7956   491      179.0000       47.0000   929827   73.74%
Elapsed time = 1939.75 sec. (3056222.78 ticks, tree = 46.07 MB, solutions = 2)
    379   251       47.8431   635      179.0000       47.0000   930756   73.74%
    380   252       48.2024   506      179.0000       47.0000   933574   73.74%
    382   254       48.4346   608      179.0000       47.0000   935140   73.74%
    384   256       49.0472   557      179.0000       47.0000   938659   73.74%
    385   257       49.0729   480      179.0000       47.0000   939677   73.74%
    387   259       49.1372   549      179.0000       47.0000   941326   73.74%
    390   262       49.3421   495      179.0000       47.0000   942485   73.74%
    393   265       50.0554   442      179.0000       47.0000   943818   73.74%
    397   269       50.6506   488      179.0000       47.0000   944564   73.74%
    400   272       50.7307   476      179.0000       47.0000   945338   73.74%
Elapsed time = 2090.35 sec. (3290774.35 ticks, tree = 50.21 MB, solutions = 2)
    402   274       47.0000   365      179.0000       47.0000   946421   73.74%
    403   275       47.0000   388      179.0000       47.0000   955375   73.74%
    404   276       47.0000   378      179.0000       47.0000   969600   73.74%
    405   277       47.0000   376      179.0000       47.0000   972104   73.74%
    406   278       47.0000   405      179.0000       47.0000   974099   73.74%
    407   279       47.0303   467      179.0000       47.0000   994658   73.74%
    408   280       47.0473   465      179.0000       47.0000   996077   73.74%
    410   282       47.0829   474      179.0000       47.0000   997021   73.74%
    413   285       47.2349   475      179.0000       47.0000   998769   73.74%
    416   288       47.2954   465      179.0000       47.0000  1000744   73.74%
Elapsed time = 2215.44 sec. (3502541.91 ticks, tree = 53.09 MB, solutions = 2)
    420   292       47.3301   474      179.0000       47.0000  1001663   73.74%
    424   296       47.9447   390      179.0000       47.0000  1002801   73.74%
    426   298       48.6282   461      179.0000       47.0000  1003665   73.74%
    429   301       48.7501   436      179.0000       47.0000  1004845   73.74%
    432   304       48.8577   539      179.0000       47.0000  1005655   73.74%
    435   307       49.1989   555      179.0000       47.0000  1006521   73.74%
    437   309       49.3938   446      179.0000       47.0000  1008287   73.74%
    440   312       49.7249   442      179.0000       47.0000  1009099   73.74%
    443   315       50.5426   436      179.0000       47.0000  1010694   73.74%
    447   319       50.7241   485      179.0000       47.0000  1011495   73.74%
Elapsed time = 2267.26 sec. (3588907.28 ticks, tree = 58.68 MB, solutions = 2)
    453   325       51.7757   506      179.0000       47.0000  1012240   73.74%
    462   334       52.7348   481      179.0000       47.0000  1013159   73.74%
    468   340       52.8328   449      179.0000       47.0000  1013940   73.74%
    470   342       53.3164   408      179.0000       47.0000  1015107   73.74%
    474   346       54.6932   427      179.0000       47.0000  1016328   73.74%
    480   352       56.2962   448      179.0000       47.0000  1017452   73.74%
    484   356       57.4492   404      179.0000       47.0000  1018337   73.74%
    490   362       58.2625   403      179.0000       47.0000  1019213   73.74%
    494   366       58.8527   415      179.0000       47.0000  1020537   73.74%
    498   370       59.5187   398      179.0000       47.0000  1021641   73.74%
Elapsed time = 2293.32 sec. (3634014.50 ticks, tree = 67.87 MB, solutions = 2)
    502   374       60.4374   375      179.0000       47.0000  1022582   73.74%
    505   377       47.0000   372      179.0000       47.0000  1043708   73.74%
    506   378       47.0000   373      179.0000       47.0000  1055293   73.74%

Clique cuts applied:  6
Cover cuts applied:  4
Mixed integer rounding cuts applied:  24
Zero-half cuts applied:  17
Gomory fractional cuts applied:  2

Root node processing (before b&c):
  Real time             =  465.30 sec. (713403.56 ticks)
Sequential b&c:
  Real time             = 3134.75 sec. (4903116.58 ticks)
                          ------------
Total (root+branch&cut) = 3600.05 sec. (5616520.14 ticks)

Solution pool: 2 solutions saved.

MIP - Time limit exceeded, integer feasible:  Objective =  1.7900000000e+02
Current MIP best bound =  4.7000000000e+01 (gap = 132, 73.74%)
Solution time = 3600.05 sec.  Iterations = 1189899  Nodes = 507 (379)
Deterministic time = 5616520.76 ticks  (1560.12 ticks/sec)

CPLEX> Incumbent solution
Variable Name           Solution Value
y                           179.000000
x9                            1.000000
x5831                         1.000000
x11625                        1.000000
x17397                        1.000000
x23146                        1.000000
x28921                        1.000000
x34680                        1.000000
x40476                        1.000000
x46248                        1.000000
x52023                        1.000000
x57791                        1.000000
x63579                        1.000000
x69335                        1.000000
x75117                        1.000000
x80935                        1.000000
x86689                        1.000000
x92432                        1.000000
x98256                        1.000000
x104029                       1.000000
x109816                       1.000000
x115532                       1.000000
x121346                       1.000000
x127086                       1.000000
x132904                       1.000000
x138687                       1.000000
x144466                       1.000000
x150238                       1.000000
x155984                       1.000000
x161750                       1.000000
x167542                       1.000000
x173299                       1.000000
x179062                       1.000000
x184858                       1.000000
x190659                       1.000000
x196459                       1.000000
x202177                       1.000000
x207939                       1.000000
x213749                       1.000000
x1293                         1.000000
x9881                         1.000000
x17025                        1.000000
x21813                        1.000000
x26221                        1.000000
x31921                        1.000000
x36405                        1.000000
x41877                        1.000000
x49173                        1.000000
x52441                        1.000000
x58445                        1.000000
x66729                        1.000000
x70985                        1.000000
x78433                        1.000000
x86185                        1.000000
x86869                        1.000000
x93557                        1.000000
x102981                       1.000000
x108529                       1.000000
x115141                       1.000000
x119853                       1.000000
x125021                       1.000000
x130949                       1.000000
x137029                       1.000000
x143337                       1.000000
x149341                       1.000000
x152609                       1.000000
x158309                       1.000000
x163249                       1.000000
x170317                       1.000000
x175257                       1.000000
x179437                       1.000000
x189849                       1.000000
x194409                       1.000000
x202009                       1.000000
x203377                       1.000000
x208089                       1.000000
x216373                       1.000000
x155270                       1.000000
x90292                        1.000000
x216453                       1.000000
x54879                        1.000000
x43024                        1.000000
x60050                        1.000000
x131035                       1.000000
x174661                       1.000000
x153687                       1.000000
x1842                         1.000000
x45696                        1.000000
x163345                       1.000000
x633                          1.000000
x174219                       1.000000
x154840                       1.000000
x155754                       1.000000
x150285                       1.000000
x43886                        1.000000
x42975                        1.000000
x214052                       1.000000
x77261                        1.000000
x46178                        1.000000
x154479                       1.000000
x152428                       1.000000
x131152                       1.000000
x131533                       1.000000
x131990                       1.000000
x153805                       1.000000
x116414                       1.000000
x128119                       1.000000
x22556                        1.000000
x127897                       1.000000
x186799                       1.000000
x151308                       1.000000
x41034                        1.000000
x152302                       1.000000
x43776                        1.000000
u2                           36.000000
u4                            1.000000
u5                            1.000000
u7                            1.000000
u8                            5.000000
u10                           1.000000
u11                           3.000000
u13                           1.000000
u15                           7.000000
u18                           2.000000
u20                           7.000000
u21                           1.000000
u25                           1.000000
u27                          37.000000
u28                           1.000000
u30                           3.000000
u33                          37.000000
u34                           3.000000
u35                           4.000000
u36                          37.000000
u41                          37.000000
u43                          37.000000
u45                          37.000000
u46                           2.000000
u47                           6.000000
u48                           4.000000
u51                          37.000000
u52                          37.000000
u53                           2.000000
u54                           5.000000
u57                           5.000000
u58                           1.000000
u59                           1.000000
u60                           1.000000
u65                           4.000000
u67                          37.000000
u68                           8.000000
u70                           6.000000
u73                          37.000000
u74                           2.000000
u76                           1.000000
All other variables in the range 1-216676 are 0.
CPLEX> 